C2
 1.000000
    2.4560000895999998   0.0000000000000000   0.0000000000000000
   -1.2280000447999999  -2.1269584692999999  -0.0000000000000000
    0.0000000000000000   0.0000000000000000 -14.0000000000000000
C
2
Direct
  0.0000000000000000 0.0000000000000000 0.5000000000000000 C
  0.3333332979999999 0.6666666919999998 0.5000000000000000 C
