$POSCAR     1   B
1.000
15.9600000000000	1.45492267835786     0.00000000
5.04000000000000	20.3689174970100     0.00000000
0.00000000000000    0.00000000000000     20.0000000
B
130
Dirac
0 0 0.5
0.0307699077022362	0.0692286256095854 0.500000000000000
0.107692307692308	-0.00769230769230769 0.500000000000000
0.0615398154044724	0.138457251219171	0.500000000000000
0.0153873231166371	0.284606810130649	0.500000000000000
0.138462215394544	0.0615363179172777	0.500000000000000
0.0923097231067086	0.207685876828756	0.500000000000000
0.0461572308188732	0.353835435740235	0.500000000000000
0.000000000000000	0.499984994651713	0.500000000000000
0.169232123096780	0.130764943526863	0.500000000000000
0.123079630808945	0.276914502438342	0.500000000000000
0.0769271385211094	0.423064061349820	0.500000000000000
0.0307746462332741	0.569213620261299	0.500000000000000
0.246154523086852	0.0538440102249700	0.500000000000000
0.200002030799016	0.199993569136449	0.500000000000000
0.153849538511181	0.346143128047927	0.500000000000000
0.107697046223346	0.492292686959406	0.500000000000000
0.0615445539355103	0.638442245870884	0.500000000000000
0.0153920616476750	0.784591804782363	0.500000000000000
0.276924430789088	0.123072635834555	0.500000000000000
0.230771938501252	0.269222194746034	0.500000000000000
0.184619446213417	0.415371753657512	0.500000000000000
0.138466953925582	0.561521312568991	0.500000000000000
0.0923144616377465	0.707670871480469	0.500000000000000
0.0461619693499112	0.853820430391948	0.500000000000000
0.353846830779159	0.0461517025326623	0.500000000000000
0.307694338491324	0.192301261444141	0.500000000000000
0.261541846203489	0.338450820355619	0.500000000000000
0.215389353915653	0.484600379267098	0.500000000000000
0.169236861627818	0.630749938178576	0.500000000000000
0.123084369339983	0.776899497090055	0.500000000000000
0.0769318770521474	0.923049056001533	0.500000000000000
0.384616738481395	0.115380328142248	0.500000000000000
0.338464246193560	0.261529887053726	0.500000000000000
0.292311753905725	0.407679445965205	0.500000000000000
0.246159261617889	0.553829004876683	0.500000000000000
0.200006769330054	0.699978563788162	0.500000000000000
0.153854277042219	0.846128122699640	0.500000000000000
0.461539138471467	0.0384593948403546	0.500000000000000
0.415386646183632	0.184608953751833	0.500000000000000
0.369234153895796	0.330758512663312	0.500000000000000
0.323081661607961	0.476908071574790	0.500000000000000
0.276929169320126	0.623057630486269	0.500000000000000
0.230776677032290	0.769207189397747	0.500000000000000
0.184624184744455	0.915356748309226	0.500000000000000
0.492309046173703	0.107688020449940	0.500000000000000
0.446156553885868	0.253837579361419	0.500000000000000
0.400004061598033	0.399987138272897	0.500000000000000
0.353851569310197	0.546136697184376	0.500000000000000
0.307699077022362	0.692286256095854	0.500000000000000
0.261546584734527	0.838435815007333	0.500000000000000
0.215394092446691	0.984585373918811	0.500000000000000
0.569231446163775	0.0307670871480469	0.500000000000000
0.523078953875939	0.176916646059525	0.500000000000000
0.476926461588104	0.323066204971004	0.500000000000000
0.430773969300269	0.469215763882483	0.500000000000000
0.384621477012433	0.615365322793961	0.500000000000000
0.338468984724598	0.761514881705440	0.500000000000000
0.292316492436763	0.907664440616918	0.500000000000000
0.600001353866011	0.0999957127576323	0.500000000000000
0.553848861578176	0.246145271669111	0.500000000000000
0.507696369290340	0.392294830580589	0.500000000000000
0.461543877002505	0.538444389492068	0.500000000000000
0.415391384714670	0.684593948403546	0.500000000000000
0.369238892426834	0.830743507315025	0.500000000000000
0.323086400138999	0.976893066226504	0.500000000000000
0.676923753856082	0.0230747794557393	0.500000000000000
0.630771261568247	0.169224338367218	0.500000000000000
0.584618769280412	0.315373897278696	0.500000000000000
0.538466276992576	0.461523456190175	0.500000000000000
0.492313784704741	0.607673015101653	0.500000000000000
0.446161292416906	0.753822574013132	0.500000000000000
0.400008800129071	0.899972132924610	0.500000000000000
0.707693661558319	0.0923034050653246	0.500000000000000
0.661541169270483	0.238452963976803	0.500000000000000
0.615388676982648	0.384602522888282	0.500000000000000
0.569236184694813	0.530752081799760	0.500000000000000
0.523083692406977	0.676901640711239	0.500000000000000
0.476931200119142	0.823051199622717	0.500000000000000
0.430778707831307	0.969200758534196	0.500000000000000
0.784616061548390	0.0153824717634316	0.500000000000000
0.738463569260555	0.161532030674910	0.500000000000000
0.692311076972719	0.307681589586389	0.500000000000000
0.646158584684884	0.453831148497867	0.500000000000000
0.600006092397049	0.599980707409346	0.500000000000000
0.553853600109213	0.746130266320824	0.500000000000000
0.507701107821378	0.892279825232303	0.500000000000000
0.815385969250626	0.0846110973730170	0.500000000000000
0.769233476962791	0.230760656284495	0.500000000000000
0.723080984674956	0.376910215195974	0.500000000000000
0.676928492387120	0.523059774107452	0.500000000000000
0.630776000099285	0.669209333018931	0.500000000000000
0.584623507811450	0.815358891930409	0.500000000000000
0.538471015523614	0.961508450841888	0.500000000000000
0.892308369240698	0.00769016407112387 0.500000000000000
0.846155876952862	0.153839722982602	0.500000000000000
0.800003384665027	0.299989281894081	0.500000000000000
0.753850892377192	0.446138840805559	0.500000000000000
0.707698400089357	0.592288399717038	0.500000000000000
0.661545907801521	0.738437958628516	0.500000000000000
0.615393415513686	0.884587517539995	0.500000000000000
0.923078276942934	0.0769187896807093	0.500000000000000
0.876925784655099	0.223068348592188	0.500000000000000
0.830773292367263	0.369217907503666	0.500000000000000
0.784620800079428	0.515367466415145	0.500000000000000
0.738468307791593	0.661517025326623	0.500000000000000
0.692315815503757	0.807666584238102	0.500000000000000
0.646163323215922	0.953816143149580	0.500000000000000
0.953848184645170	0.146147415290295	0.500000000000000
0.907695692357335	0.292296974201773	0.500000000000000
0.861543200069499	0.438446533113252	0.500000000000000
0.815390707781664	0.584596092024730	0.500000000000000
0.769238215493829	0.730745650936209	0.500000000000000
0.723085723205994	0.876895209847687	0.500000000000000
0.984618092347406	0.215376040899880	0.500000000000000
0.938465600059571	0.361525599811359	0.500000000000000
0.892313107771736	0.507675158722837	0.500000000000000
0.846160615483900	0.653824717634316	0.500000000000000
0.800008123196065	0.799974276545794	0.500000000000000
0.753855630908230	0.946123835457273	0.500000000000000
0.969235507761807	0.430754225420944	0.500000000000000
0.923083015473972	0.576903784332423	0.500000000000000
0.876930523186137	0.723053343243901	0.500000000000000
0.830778030898301	0.869202902155380	0.500000000000000
0.953852923176208	0.646132409942008	0.500000000000000
0.907700430888373	0.792281968853486	0.500000000000000
0.861547938600537	0.938431527764965	0.500000000000000
0.984622830878444	0.715361035551593	0.500000000000000
0.938470338590609	0.861510594463072	0.500000000000000
0.969240246292845	0.930739220072657	0.500000000000000
